NAME : portcgen-25-7
COMMENT : portcgen N=25, seed=7
TYPE : TSP
DIMENSION : 25
EDGE_WEIGHT_TYPE : EUC_2D
NODE_COORD_SECTION
1 127713 -180628
2 -54256 323801
3 156421 -60197
4 -240163 -253276
5 -338464 86226
6 -17362 -169345
7 -387372 -212945
8 185748 186404
9 -10059 -225350
10 775 -36368
11 128428 -23653
12 22714 -312389
13 -484790 160884
14 -295605 199853
15 375755 276643
16 -92333 122858
17 -69115 -241590
18 -31992 -215637
19 -399096 -100418
20 277205 -141453
21 55959 338473
22 -58349 -222402
23 143373 175677
24 21737 -156701
25 -170838 -18937
